\ LP format - for model browsing. Use MPS format to capture full model detail.
Minimize
  0 B39(0) + 0 B41(0) + 0 B44(0) + 0 B47(0) + 0 B50(0) + 0 B53(0) + 0 B55(0)
   + 0 B59(0) + 0 B64(0) + 0 B68(0) + 0 B69(0) + 0 B71(0) + 0 B72(0)
   + 0 B75(0) + 0 B78(0) + 0 B81(0) + 0 B84(0) + 0 B85(0) + 0 B86(0)
   + 0 B87(0) + 0 B89(0) + 0 B92(0) + 0 B95(0) + 0 B98(0) + 0 B99(0)
   + 0 B100(0) + 0 B101(0) + 0 B103(0) + 0 B104(0) + 0 B113(0) + 0 B114(0)
   + 0 B115(0) + 0 B116(0) + 0 B117(0) + 0 B118(0) + 0 B119(0) + 0 B120(0)
   + 0 B123(0) + 0 B126(0) + 0 B129(0) + 0 B130(0) + 0 B131(0) + 0 B132(0)
   + 0 B133(0) + 0 B134(0) + 0 B135(0) + 0 B136(0) + 0 B137(0) + 0 B139(0)
   + 0 B140(0) + 0 B142(0) + 0 B143(0) + 0 B144(0) + 0 B145(0) + 0 B146(0)
   + 0 B147(0) + 0 B148(0) + 0 B149(0) + 0 B150(0) + 0 B151(0) + 0 B153(0)
   + 0 B158(0) + 0 B159(0) + 0 B160(0) + 0 B161(0) + 0 B162(0) + 0 B163(0)
   + 0 B164(0) + 0 B165(0) + 0 B167(0) + 0 B168(0) + 0 B171(0) + 0 B174(0)
   + 0 B175(0) + 0 B176(0) + 0 B177(0) + 0 B178(0) + 0 B179(0) + 0 B180(0)
   + 0 B181(0) + 0 B182(0) + 0 B183(0) + 0 B184(0) + 0 B185(0) + 0 B187(0)
   + 0 B188(0) + 0 B189(0) + 0 B190(0) + 0 B191(0) + 0 B192(0) + 0 B193(0)
   + 0 B194(0) + 0 B195(0) + 0 B196(0) + 0 B197(0) + 0 B198(0) + 0 B199(0)
   + 0 B200(0) + 0 B204(0) + 0 B205(0) + 0 B206(0) + 0 B207(0) + 0 B208(0)
   + 0 B209(0) + 0 B210(0) + 0 B211(0) + 0 B212(0) + 0 B213(0) + 0 B214(0)
   + 0 B215(0) + 0 B216(0) + 0 B219(0) + 0 B220(0) + 0 B221(0) + 0 B222(0)
   + 0 B223(0) + 0 B224(0) + 0 B225(0) + 0 B226(0) + 0 B227(0) + 0 B228(0)
   + 0 B229(0) + 0 B230(0) + 0 B231(0) + 0 B232(0) + 0 B233(0) + 0 B234(0)
   + 0 B235(0) + 0 B236(0) + 0 B237(0) + 0 B238(0) + 0 B239(0) + 0 B240(0)
   + 0 B241(0) + 0 B242(0) + 0 B243(0) + 0 B244(0) + 0 B245(0) + 0 B246(0)
   + 0 B247(0) + 0 B248(0) + 0 B249(0) + 0 B250(0) + 0 B251(0) + 0 B252(0)
   + 0 B253(0) + 0 B254(0) + 0 B255(0) + 0 B256(0) + 0 B257(0) + 0 B258(0)
   + 0 B259(0) + 0 B260(0) + 0 B261(0) + 0 B262(0) + 0 B263(0) + I303(1)
Subject To
 c0: B0(17) + B1(17) + B2(17) = 1
 c1: B3(18) + B4(17) + B5(17) = 1
 c2: B6(18) + B7(13) + B8(7) = 1
 c3: B9(14) + B10(18) = 1
 c4: B11(18) + B12(13) + B13(15) = 1
 c5: B14(13) + B15(9) + B16(7) = 1
 c6: B17(13) + B18(13) = 1
 c7: B19(8) + B20(16) + B21(18) = 1
 c8: B22(18) + B23(13) + B24(9) = 1
 c9: B25(13) + B26(13) = 1
 c10: B27(15) + B28(13) = 1
 c11: B29(15) + B30(9) = 1
 c12: B31(14) + B32(14) + B33(14) = 1
 c13: B34(15) + B35(16) + B36(12) = 1
 c14: B37(12) + B38(9) = 1
 c15: - 147 B0(17) - 123 B1(17) - 145 B2(17) - I264(18) - I265(18)
   - I266(18) + I267(22) + I268(20) + I269(20) >= 0
 c16: - 1.000000147e+09 B0(17) - 123 B1(17) - 145 B2(17) - 1e+09 B5(17)
   - I264(18) - I265(18) - I266(18) + I267(22) + I268(20) + I269(20)
   >= -1.999999984e+09
 c17: - 147 B0(17) - 1.000000123e+09 B1(17) - 145 B2(17) - 1e+09 B4(17)
   - I264(18) - I265(18) - I266(18) + I267(22) + I268(20) + I269(20)
   >= -1.99999999e+09
 c18: - 140 B3(18) - 130 B4(17) - 123 B5(17) - I267(22) - I268(20)
   - I269(20) + I270(20) + I271(16) + I272(10) >= 0
 c19: - 1.00000014e+09 B3(18) - 130 B4(17) - 123 B5(17) - 1e+09 B6(18)
   - I267(22) - I268(20) - I269(20) + I270(20) + I271(16) + I272(10)
   >= -1.999999991e+09
 c20: - 214 B9(14) - 150 B10(18) - I273(15) - I274(19) + I275(20)
   + I276(16) + I277(18) >= 0
 c21: - 214 B9(14) - 1.00000015e+09 B10(18) - 1e+09 B11(18) - I273(15)
   - I274(19) + I275(20) + I276(16) + I277(18) >= -1.999999987e+09
 c22: - 87 B11(18) - 66 B12(13) - 99 B13(15) - I275(20) - I276(16)
   - I277(18) + I278(15) + I279(11) + I280(9) >= 0
 c23: - 87 B17(13) - 62 B18(13) - I281(14) - I282(14) + I283(10) + I284(18)
   + I285(20) >= 0
 c24: - 145 B19(8) - 180 B20(16) - 105 B21(18) - I283(10) - I284(18)
   - I285(20) + I286(20) + I287(16) + I288(12) >= 0
 c25: - 145 B19(8) - 180 B20(16) - 1.000000105e+09 B21(18) - 1e+09 B22(18)
   - I283(10) - I284(18) - I285(20) + I286(20) + I287(16) + I288(12)
   >= -1.999999985e+09
 c26: - 87 B25(13) - 65 B26(13) - I289(14) - I290(14) + I291(17) + I292(15)
   >= 0
 c27: - 250 B27(15) - 173 B28(13) - I291(17) - I292(15) + I293(17)
   + I294(11) >= 0
 c28: - 123 B31(14) - 145 B32(14) - 128 B33(14) - I295(15) - I296(15)
   - I297(15) + I298(17) + I299(19) + I300(15) >= 0
 c29: - 123 B31(14) - 1.000000145e+09 B32(14) - 128 B33(14) - 1e+09 B34(15)
   - I295(15) - I296(15) - I297(15) + I298(17) + I299(19) + I300(15)
   >= -1.99999999e+09
 c30: - 86 B34(15) - 65 B35(16) - 47 B36(12) - I298(17) - I299(19)
   - I300(15) + I301(14) + I302(12) >= 0
 c31: - 86 B34(15) - 65 B35(16) - 1.000000047e+09 B36(12) - 1e+09 B37(12)
   - I298(17) - I299(19) - I300(15) + I301(14) + I302(12)
   >= -1.999999986e+09
 c32: - 1e+09 B0(17) + I264(18) <= 0
 c33: - 1e+09 B1(17) + I265(18) <= 0
 c34: - 1e+09 B2(17) + I266(18) <= 0
 c35: - 1e+09 B3(18) + I267(22) <= 0
 c36: - 1e+09 B4(17) + I268(20) <= 0
 c37: - 1e+09 B5(17) + I269(20) <= 0
 c38: - 1e+09 B6(18) + I270(20) <= 0
 c39: - 1e+09 B7(13) + I271(16) <= 0
 c40: - 1e+09 B8(7) + I272(10) <= 0
 c41: - 1e+09 B9(14) + I273(15) <= 0
 c42: - 1e+09 B10(18) + I274(19) <= 0
 c43: - 1e+09 B11(18) + I275(20) <= 0
 c44: - 1e+09 B12(13) + I276(16) <= 0
 c45: - 1e+09 B13(15) + I277(18) <= 0
 c46: - 1e+09 B14(13) + I278(15) <= 0
 c47: - 1e+09 B15(9) + I279(11) <= 0
 c48: - 1e+09 B16(7) + I280(9) <= 0
 c49: - 1e+09 B17(13) + I281(14) <= 0
 c50: - 1e+09 B18(13) + I282(14) <= 0
 c51: - 1e+09 B19(8) + I283(10) <= 0
 c52: - 1e+09 B20(16) + I284(18) <= 0
 c53: - 1e+09 B21(18) + I285(20) <= 0
 c54: - 1e+09 B22(18) + I286(20) <= 0
 c55: - 1e+09 B23(13) + I287(16) <= 0
 c56: - 1e+09 B24(9) + I288(12) <= 0
 c57: - 1e+09 B25(13) + I289(14) <= 0
 c58: - 1e+09 B26(13) + I290(14) <= 0
 c59: - 1e+09 B27(15) + I291(17) <= 0
 c60: - 1e+09 B28(13) + I292(15) <= 0
 c61: - 1e+09 B29(15) + I293(17) <= 0
 c62: - 1e+09 B30(9) + I294(11) <= 0
 c63: - 1e+09 B31(14) + I295(15) <= 0
 c64: - 1e+09 B32(14) + I296(15) <= 0
 c65: - 1e+09 B33(14) + I297(15) <= 0
 c66: - 1e+09 B34(15) + I298(17) <= 0
 c67: - 1e+09 B35(16) + I299(19) <= 0
 c68: - 1e+09 B36(12) + I300(15) <= 0
 c69: - 1e+09 B37(12) + I301(14) <= 0
 c70: - 1e+09 B38(9) + I302(12) <= 0
 c71: - 1e+09 B0(17) - 1e+09 B5(17) - 1e+09 B40(4) + I264(18) - I269(20)
   >= -2.999999864e+09
 c72: - 1e+09 B0(17) - 1e+09 B5(17) + 1e+09 B40(4) - I264(18) + I269(20)
   >= -1.999999837e+09
 c73: - 1e+09 B1(17) - 1e+09 B4(17) - 1e+09 B40(4) + I265(18) - I268(20)
   >= -2.999999856e+09
 c74: - 1e+09 B1(17) - 1e+09 B4(17) + 1e+09 B40(4) - I265(18) + I268(20)
   >= -1.999999867e+09
 c75: - 1e+09 B0(17) - 1e+09 B9(14) - 1e+09 B42(4) + I264(18) - I273(15)
   >= -2.999999772e+09
 c76: - 1e+09 B0(17) - 1e+09 B9(14) + 1e+09 B42(4) - I264(18) + I273(15)
   >= -1.999999835e+09
 c77: - 1e+09 B2(17) - 1e+09 B10(18) - 1e+09 B42(4) + I266(18) - I274(19)
   >= -2.999999834e+09
 c78: - 1e+09 B2(17) - 1e+09 B10(18) + 1e+09 B42(4) - I266(18) + I274(19)
   >= -1.999999839e+09
 c79: - 1e+09 B1(17) - 1e+09 B12(13) - 1e+09 B43(4) + I265(18) - I276(16)
   >= -2.999999919e+09
 c80: - 1e+09 B1(17) - 1e+09 B12(13) + 1e+09 B43(4) - I265(18) + I276(16)
   >= -1.999999861e+09
 c81: - 1e+09 B2(17) - 1e+09 B11(18) - 1e+09 B43(4) + I266(18) - I275(20)
   >= -2.999999901e+09
 c82: - 1e+09 B2(17) - 1e+09 B11(18) + 1e+09 B43(4) - I266(18) + I275(20)
   >= -1.99999984e+09
 c83: - 1e+09 B0(17) - 1e+09 B17(13) - 1e+09 B45(4) + I264(18) - I281(14)
   >= -2.999999898e+09
 c84: - 1e+09 B0(17) - 1e+09 B17(13) + 1e+09 B45(4) - I264(18) + I281(14)
   >= -1.999999836e+09
 c85: - 1e+09 B1(17) - 1e+09 B18(13) - 1e+09 B45(4) + I265(18) - I282(14)
   >= -2.999999928e+09
 c86: - 1e+09 B1(17) - 1e+09 B18(13) + 1e+09 B45(4) - I265(18) + I282(14)
   >= -1.999999863e+09
 c87: - 1e+09 B2(17) - 1e+09 B20(16) - 1e+09 B46(2) + I266(18) - I284(18)
   >= -2.999999811e+09
 c88: - 1e+09 B2(17) - 1e+09 B20(16) + 1e+09 B46(2) - I266(18) + I284(18)
   >= -1.999999845e+09
 c89: - 1e+09 B0(17) - 1e+09 B25(13) - 1e+09 B48(4) + I264(18) - I289(14)
   >= -2.999999902e+09
 c90: - 1e+09 B0(17) - 1e+09 B25(13) + 1e+09 B48(4) - I264(18) + I289(14)
   >= -1.999999838e+09
 c91: - 1e+09 B1(17) - 1e+09 B26(13) - 1e+09 B48(4) + I265(18) - I290(14)
   >= -2.999999925e+09
 c92: - 1e+09 B1(17) - 1e+09 B26(13) + 1e+09 B48(4) - I265(18) + I290(14)
   >= -1.999999862e+09
 c93: - 1e+09 B2(17) - 1e+09 B27(15) - 1e+09 B49(2) + I266(18) - I291(17)
   >= -2.99999974e+09
 c94: - 1e+09 B2(17) - 1e+09 B27(15) + 1e+09 B49(2) - I266(18) + I291(17)
   >= -1.999999844e+09
 c95: - 1e+09 B0(17) - 1e+09 B33(14) - 1e+09 B51(6) + I264(18) - I297(15)
   >= -2.999999855e+09
 c96: - 1e+09 B0(17) - 1e+09 B33(14) + 1e+09 B51(6) - I264(18) + I297(15)
   >= -1.999999837e+09
 c97: - 1e+09 B1(17) - 1e+09 B31(14) - 1e+09 B51(6) + I265(18) - I295(15)
   >= -2.999999863e+09
 c98: - 1e+09 B1(17) - 1e+09 B31(14) + 1e+09 B51(6) - I265(18) + I295(15)
   >= -1.999999863e+09
 c99: - 1e+09 B2(17) - 1e+09 B32(14) - 1e+09 B51(6) + I266(18) - I296(15)
   >= -2.999999845e+09
 c100: - 1e+09 B2(17) - 1e+09 B32(14) + 1e+09 B51(6) - I266(18) + I296(15)
   >= -1.999999838e+09
 c101: - 1e+09 B2(17) - 1e+09 B34(15) - 1e+09 B52(2) + I266(18) - I298(17)
   >= -2.999999904e+09
 c102: - 1e+09 B2(17) - 1e+09 B34(15) + 1e+09 B52(2) - I266(18) + I298(17)
   >= -1.999999845e+09
 c103: - 1e+09 B0(17) - 1e+09 B5(17) - 1e+09 B54(4) - I264(18) + I269(20)
   >= -2.999999837e+09
 c104: - 1e+09 B0(17) - 1e+09 B5(17) + 1e+09 B54(4) + I264(18) - I269(20)
   >= -1.999999864e+09
 c105: - 1e+09 B1(17) - 1e+09 B4(17) - 1e+09 B54(4) - I265(18) + I268(20)
   >= -2.999999867e+09
 c106: - 1e+09 B1(17) - 1e+09 B4(17) + 1e+09 B54(4) + I265(18) - I268(20)
   >= -1.999999856e+09
 c107: - 1e+09 B3(18) - 1e+09 B6(18) - 1e+09 B56(2) + I267(22) - I270(20)
   >= -2.999999836e+09
 c108: - 1e+09 B3(18) - 1e+09 B6(18) + 1e+09 B56(2) - I267(22) + I270(20)
   >= -1.999999851e+09
 c109: - 1e+09 B5(17) - 1e+09 B9(14) - 1e+09 B57(2) + I269(20) - I273(15)
   >= -2.999999775e+09
 c110: - 1e+09 B5(17) - 1e+09 B9(14) + 1e+09 B57(2) - I269(20) + I273(15)
   >= -1.999999866e+09
 c111: - 1e+09 B4(17) - 1e+09 B12(13) - 1e+09 B58(4) + I268(20) - I276(16)
   >= -2.999999922e+09
 c112: - 1e+09 B4(17) - 1e+09 B12(13) + 1e+09 B58(4) - I268(20) + I276(16)
   >= -1.999999856e+09
 c113: - 1e+09 B3(18) - 1e+09 B13(15) - 1e+09 B58(4) + I267(22) - I277(18)
   >= -2.99999989e+09
 c114: - 1e+09 B3(18) - 1e+09 B13(15) + 1e+09 B58(4) - I267(22) + I277(18)
   >= -1.999999845e+09
 c115: - 1e+09 B5(17) - 1e+09 B17(13) - 1e+09 B60(4) + I269(20) - I281(14)
   >= -2.999999897e+09
 c116: - 1e+09 B5(17) - 1e+09 B17(13) + 1e+09 B60(4) - I269(20) + I281(14)
   >= -1.999999862e+09
 c117: - 1e+09 B4(17) - 1e+09 B18(13) - 1e+09 B60(4) + I268(20) - I282(14)
   >= -2.999999927e+09
 c118: - 1e+09 B4(17) - 1e+09 B18(13) + 1e+09 B60(4) - I268(20) + I282(14)
   >= -1.999999861e+09
 c119: - 1e+09 B3(18) - 1e+09 B21(18) - 1e+09 B61(2) + I267(22) - I285(20)
   >= -2.999999879e+09
 c120: - 1e+09 B3(18) - 1e+09 B21(18) + 1e+09 B61(2) - I267(22) + I285(20)
   >= -1.99999985e+09
 c121: - 1e+09 B3(18) - 1e+09 B22(18) - 1e+09 B62(2) + I267(22) - I286(20)
   >= -2.999999799e+09
 c122: - 1e+09 B3(18) - 1e+09 B22(18) + 1e+09 B62(2) - I267(22) + I286(20)
   >= -1.999999847e+09
 c123: - 1e+09 B5(17) - 1e+09 B25(13) - 1e+09 B63(4) + I269(20) - I289(14)
   >= -2.999999903e+09
 c124: - 1e+09 B5(17) - 1e+09 B25(13) + 1e+09 B63(4) - I269(20) + I289(14)
   >= -1.99999986e+09
 c125: - 1e+09 B4(17) - 1e+09 B26(13) - 1e+09 B63(4) + I268(20) - I290(14)
   >= -2.999999924e+09
 c126: - 1e+09 B4(17) - 1e+09 B26(13) + 1e+09 B63(4) - I268(20) + I290(14)
   >= -1.999999858e+09
 c127: - 1e+09 B3(18) - 1e+09 B29(15) - 1e+09 B65(2) + I267(22) - I293(17)
   >= -2.999999839e+09
 c128: - 1e+09 B3(18) - 1e+09 B29(15) + 1e+09 B65(2) - I267(22) + I293(17)
   >= -1.999999843e+09
 c129: - 1e+09 B5(17) - 1e+09 B33(14) - 1e+09 B66(4) + I269(20) - I297(15)
   >= -2.999999861e+09
 c130: - 1e+09 B5(17) - 1e+09 B33(14) + 1e+09 B66(4) - I269(20) + I297(15)
   >= -1.999999863e+09
 c131: - 1e+09 B4(17) - 1e+09 B31(14) - 1e+09 B66(4) + I268(20) - I295(15)
   >= -2.999999865e+09
 c132: - 1e+09 B4(17) - 1e+09 B31(14) + 1e+09 B66(4) - I268(20) + I295(15)
   >= -1.999999857e+09
 c133: - 1e+09 B3(18) - 1e+09 B35(16) - 1e+09 B67(2) + I267(22) - I299(19)
   >= -2.999999921e+09
 c134: - 1e+09 B3(18) - 1e+09 B35(16) + 1e+09 B67(2) - I267(22) + I299(19)
   >= -1.999999847e+09
 c135: - 1e+09 B3(18) - 1e+09 B6(18) - 1e+09 B70(2) - I267(22) + I270(20)
   >= -2.999999851e+09
 c136: - 1e+09 B3(18) - 1e+09 B6(18) + 1e+09 B70(2) + I267(22) - I270(20)
   >= -1.999999836e+09
 c137: - 1e+09 B6(18) - 1e+09 B13(15) - 1e+09 B73(2) + I270(20) - I277(18)
   >= -2.999999888e+09
 c138: - 1e+09 B6(18) - 1e+09 B13(15) + 1e+09 B73(2) - I270(20) + I277(18)
   >= -1.999999837e+09
 c139: - 1e+09 B7(13) - 1e+09 B14(13) - 1e+09 B74(4) + I271(16) - I278(15)
   >= -2.999999806e+09
 c140: - 1e+09 B7(13) - 1e+09 B14(13) + 1e+09 B74(4) - I271(16) + I278(15)
   >= -1.999999827e+09
 c141: - 1e+09 B8(7) - 1e+09 B16(7) - 1e+09 B74(4) + I272(10) - I280(9)
   >= -2.999999837e+09
 c142: - 1e+09 B8(7) - 1e+09 B16(7) + 1e+09 B74(4) - I272(10) + I280(9)
   >= -1.999999787e+09
 c143: - 1e+09 B6(18) - 1e+09 B21(18) - 1e+09 B76(4) + I270(20) - I285(20)
   >= -2.99999988e+09
 c144: - 1e+09 B6(18) - 1e+09 B21(18) + 1e+09 B76(4) - I270(20) + I285(20)
   >= -1.999999837e+09
 c145: - 1e+09 B8(7) - 1e+09 B19(8) - 1e+09 B76(4) + I272(10) - I283(10)
   >= -2.999999843e+09
 c146: - 1e+09 B8(7) - 1e+09 B19(8) + 1e+09 B76(4) - I272(10) + I283(10)
   >= -1.999999786e+09
 c147: - 1e+09 B6(18) - 1e+09 B22(18) - 1e+09 B77(4) + I270(20) - I286(20)
   >= -2.999999794e+09
 c148: - 1e+09 B6(18) - 1e+09 B22(18) + 1e+09 B77(4) - I270(20) + I286(20)
   >= -1.999999838e+09
 c149: - 1e+09 B7(13) - 1e+09 B23(13) - 1e+09 B77(4) + I271(16) - I287(16)
   >= -2.99999989e+09
 c150: - 1e+09 B7(13) - 1e+09 B23(13) + 1e+09 B77(4) - I271(16) + I287(16)
   >= -1.999999826e+09
 c151: - 1e+09 B7(13) - 1e+09 B28(13) - 1e+09 B79(2) + I271(16) - I292(15)
   >= -2.999999813e+09
 c152: - 1e+09 B7(13) - 1e+09 B28(13) + 1e+09 B79(2) - I271(16) + I292(15)
   >= -1.999999827e+09
 c153: - 1e+09 B6(18) - 1e+09 B29(15) - 1e+09 B80(2) + I270(20) - I293(17)
   >= -2.99999984e+09
 c154: - 1e+09 B6(18) - 1e+09 B29(15) + 1e+09 B80(2) - I270(20) + I293(17)
   >= -1.999999837e+09
 c155: - 1e+09 B6(18) - 1e+09 B35(16) - 1e+09 B82(4) + I270(20) - I299(19)
   >= -2.999999921e+09
 c156: - 1e+09 B6(18) - 1e+09 B35(16) + 1e+09 B82(4) - I270(20) + I299(19)
   >= -1.999999836e+09
 c157: - 1e+09 B7(13) - 1e+09 B36(12) - 1e+09 B82(4) + I271(16) - I300(15)
   >= -2.99999994e+09
 c158: - 1e+09 B7(13) - 1e+09 B36(12) + 1e+09 B82(4) - I271(16) + I300(15)
   >= -1.999999825e+09
 c159: - 1e+09 B7(13) - 1e+09 B37(12) - 1e+09 B83(2) + I271(16) - I301(14)
   >= -2.999999875e+09
 c160: - 1e+09 B7(13) - 1e+09 B37(12) + 1e+09 B83(2) - I271(16) + I301(14)
   >= -1.999999827e+09
 c161: - 1e+09 B10(18) - 1e+09 B11(18) - 1e+09 B88(2) + I274(19) - I275(20)
   >= -2.999999896e+09
 c162: - 1e+09 B10(18) - 1e+09 B11(18) + 1e+09 B88(2) - I274(19) + I275(20)
   >= -1.999999837e+09
 c163: - 1e+09 B9(14) - 1e+09 B17(13) - 1e+09 B90(2) + I273(15) - I281(14)
   >= -2.9999999e+09
 c164: - 1e+09 B9(14) - 1e+09 B17(13) + 1e+09 B90(2) - I273(15) + I281(14)
   >= -1.999999773e+09
 c165: - 1e+09 B10(18) - 1e+09 B20(16) - 1e+09 B91(2) + I274(19) - I284(18)
   >= -2.999999806e+09
 c166: - 1e+09 B10(18) - 1e+09 B20(16) + 1e+09 B91(2) - I274(19) + I284(18)
   >= -1.999999841e+09
 c167: - 1e+09 B9(14) - 1e+09 B25(13) - 1e+09 B93(2) + I273(15) - I289(14)
   >= -2.999999897e+09
 c168: - 1e+09 B9(14) - 1e+09 B25(13) + 1e+09 B93(2) - I273(15) + I289(14)
   >= -1.999999772e+09
 c169: - 1e+09 B10(18) - 1e+09 B27(15) - 1e+09 B94(2) + I274(19) - I291(17)
   >= -2.999999734e+09
 c170: - 1e+09 B10(18) - 1e+09 B27(15) + 1e+09 B94(2) - I274(19) + I291(17)
   >= -1.999999834e+09
 c171: - 1e+09 B9(14) - 1e+09 B33(14) - 1e+09 B96(4) + I273(15) - I297(15)
   >= -2.999999863e+09
 c172: - 1e+09 B9(14) - 1e+09 B33(14) + 1e+09 B96(4) - I273(15) + I297(15)
   >= -1.999999773e+09
 c173: - 1e+09 B10(18) - 1e+09 B32(14) - 1e+09 B96(4) + I274(19) - I296(15)
   >= -2.999999842e+09
 c174: - 1e+09 B10(18) - 1e+09 B32(14) + 1e+09 B96(4) - I274(19) + I296(15)
   >= -1.999999838e+09
 c175: - 1e+09 B10(18) - 1e+09 B34(15) - 1e+09 B97(2) + I274(19) - I298(17)
   >= -2.999999903e+09
 c176: - 1e+09 B10(18) - 1e+09 B34(15) + 1e+09 B97(2) - I274(19) + I298(17)
   >= -1.999999838e+09
 c177: - 1e+09 B10(18) - 1e+09 B11(18) - 1e+09 B102(2) - I274(19)
   + I275(20) >= -2.999999837e+09
 c178: - 1e+09 B10(18) - 1e+09 B11(18) + 1e+09 B102(2) + I274(19)
   - I275(20) >= -1.999999896e+09
 c179: - 1e+09 B12(13) - 1e+09 B18(13) - 1e+09 B105(2) + I276(16)
   - I282(14) >= -2.999999926e+09
 c180: - 1e+09 B12(13) - 1e+09 B18(13) + 1e+09 B105(2) - I276(16)
   + I282(14) >= -1.999999918e+09
 c181: - 1e+09 B11(18) - 1e+09 B20(16) - 1e+09 B106(4) + I275(20)
   - I284(18) >= -2.999999807e+09
 c182: - 1e+09 B11(18) - 1e+09 B20(16) + 1e+09 B106(4) - I275(20)
   + I284(18) >= -1.999999898e+09
 c183: - 1e+09 B13(15) - 1e+09 B21(18) - 1e+09 B106(4) + I277(18)
   - I285(20) >= -2.999999881e+09
 c184: - 1e+09 B13(15) - 1e+09 B21(18) + 1e+09 B106(4) - I277(18)
   + I285(20) >= -1.999999891e+09
 c185: - 1e+09 B13(15) - 1e+09 B22(18) - 1e+09 B107(2) + I277(18)
   - I286(20) >= -2.999999799e+09
 c186: - 1e+09 B13(15) - 1e+09 B22(18) + 1e+09 B107(2) - I277(18)
   + I286(20) >= -1.999999888e+09
 c187: - 1e+09 B12(13) - 1e+09 B26(13) - 1e+09 B108(2) + I276(16)
   - I290(14) >= -2.999999922e+09
 c188: - 1e+09 B12(13) - 1e+09 B26(13) + 1e+09 B108(2) - I276(16)
   + I290(14) >= -1.99999992e+09
 c189: - 1e+09 B11(18) - 1e+09 B27(15) - 1e+09 B109(2) + I275(20)
   - I291(17) >= -2.999999733e+09
 c190: - 1e+09 B11(18) - 1e+09 B27(15) + 1e+09 B109(2) - I275(20)
   + I291(17) >= -1.9999999e+09
 c191: - 1e+09 B13(15) - 1e+09 B29(15) - 1e+09 B110(2) + I277(18)
   - I293(17) >= -2.999999844e+09
 c192: - 1e+09 B13(15) - 1e+09 B29(15) + 1e+09 B110(2) - I277(18)
   + I293(17) >= -1.999999884e+09
 c193: - 1e+09 B12(13) - 1e+09 B31(14) - 1e+09 B111(4) + I276(16)
   - I295(15) >= -2.999999864e+09
 c194: - 1e+09 B12(13) - 1e+09 B31(14) + 1e+09 B111(4) - I276(16)
   + I295(15) >= -1.999999919e+09
 c195: - 1e+09 B11(18) - 1e+09 B32(14) - 1e+09 B111(4) + I275(20)
   - I296(15) >= -2.999999845e+09
 c196: - 1e+09 B11(18) - 1e+09 B32(14) + 1e+09 B111(4) - I275(20)
   + I296(15) >= -1.999999896e+09
 c197: - 1e+09 B11(18) - 1e+09 B34(15) - 1e+09 B112(4) + I275(20)
   - I298(17) >= -2.999999904e+09
 c198: - 1e+09 B11(18) - 1e+09 B34(15) + 1e+09 B112(4) - I275(20)
   + I298(17) >= -1.9999999e+09
 c199: - 1e+09 B13(15) - 1e+09 B35(16) - 1e+09 B112(4) + I277(18)
   - I299(19) >= -2.99999992e+09
 c200: - 1e+09 B13(15) - 1e+09 B35(16) + 1e+09 B112(4) - I277(18)
   + I299(19) >= -1.999999887e+09
 c201: - 1e+09 B16(7) - 1e+09 B19(8) - 1e+09 B121(2) + I280(9) - I283(10)
   >= -2.999999846e+09
 c202: - 1e+09 B16(7) - 1e+09 B19(8) + 1e+09 B121(2) - I280(9) + I283(10)
   >= -1.999999835e+09
 c203: - 1e+09 B14(13) - 1e+09 B23(13) - 1e+09 B122(4) + I278(15)
   - I287(16) >= -2.999999883e+09
 c204: - 1e+09 B14(13) - 1e+09 B23(13) + 1e+09 B122(4) - I278(15)
   + I287(16) >= -1.999999807e+09
 c205: - 1e+09 B15(9) - 1e+09 B24(9) - 1e+09 B122(4) + I279(11) - I288(12)
   >= -2.999999834e+09
 c206: - 1e+09 B15(9) - 1e+09 B24(9) + 1e+09 B122(4) - I279(11) + I288(12)
   >= -1.999999893e+09
 c207: - 1e+09 B14(13) - 1e+09 B28(13) - 1e+09 B124(2) + I278(15)
   - I292(15) >= -2.999999812e+09
 c208: - 1e+09 B14(13) - 1e+09 B28(13) + 1e+09 B124(2) - I278(15)
   + I292(15) >= -1.999999808e+09
 c209: - 1e+09 B15(9) - 1e+09 B30(9) - 1e+09 B125(2) + I279(11) - I294(11)
   >= -2.999999851e+09
 c210: - 1e+09 B15(9) - 1e+09 B30(9) + 1e+09 B125(2) - I279(11) + I294(11)
   >= -1.999999893e+09
 c211: - 1e+09 B14(13) - 1e+09 B36(12) - 1e+09 B127(2) + I278(15)
   - I300(15) >= -2.999999939e+09
 c212: - 1e+09 B14(13) - 1e+09 B36(12) + 1e+09 B127(2) - I278(15)
   + I300(15) >= -1.99999981e+09
 c213: - 1e+09 B14(13) - 1e+09 B37(12) - 1e+09 B128(4) + I278(15)
   - I301(14) >= -2.999999875e+09
 c214: - 1e+09 B14(13) - 1e+09 B37(12) + 1e+09 B128(4) - I278(15)
   + I301(14) >= -1.999999809e+09
 c215: - 1e+09 B15(9) - 1e+09 B38(9) - 1e+09 B128(4) + I279(11) - I302(12)
   >= -2.999999903e+09
 c216: - 1e+09 B15(9) - 1e+09 B38(9) + 1e+09 B128(4) - I279(11) + I302(12)
   >= -1.999999894e+09
 c217: - 1e+09 B17(13) - 1e+09 B25(13) - 1e+09 B138(4) + I281(14)
   - I289(14) >= -2.999999901e+09
 c218: - 1e+09 B17(13) - 1e+09 B25(13) + 1e+09 B138(4) - I281(14)
   + I289(14) >= -1.999999901e+09
 c219: - 1e+09 B18(13) - 1e+09 B26(13) - 1e+09 B138(4) + I282(14)
   - I290(14) >= -2.999999924e+09
 c220: - 1e+09 B18(13) - 1e+09 B26(13) + 1e+09 B138(4) - I282(14)
   + I290(14) >= -1.999999922e+09
 c221: - 1e+09 B17(13) - 1e+09 B33(14) - 1e+09 B141(4) + I281(14)
   - I297(15) >= -2.99999986e+09
 c222: - 1e+09 B17(13) - 1e+09 B33(14) + 1e+09 B141(4) - I281(14)
   + I297(15) >= -1.999999903e+09
 c223: - 1e+09 B18(13) - 1e+09 B31(14) - 1e+09 B141(4) + I282(14)
   - I295(15) >= -2.999999865e+09
 c224: - 1e+09 B18(13) - 1e+09 B31(14) + 1e+09 B141(4) - I282(14)
   + I295(15) >= -1.999999927e+09
 c225: - 1e+09 B21(18) - 1e+09 B22(18) - 1e+09 B152(2) + I285(20)
   - I286(20) >= -2.999999799e+09
 c226: - 1e+09 B21(18) - 1e+09 B22(18) + 1e+09 B152(2) - I285(20)
   + I286(20) >= -1.99999988e+09
 c227: - 1e+09 B20(16) - 1e+09 B27(15) - 1e+09 B154(2) + I284(18)
   - I291(17) >= -2.999999734e+09
 c228: - 1e+09 B20(16) - 1e+09 B27(15) + 1e+09 B154(2) - I284(18)
   + I291(17) >= -1.999999811e+09
 c229: - 1e+09 B21(18) - 1e+09 B29(15) - 1e+09 B155(2) + I285(20)
   - I293(17) >= -2.999999841e+09
 c230: - 1e+09 B21(18) - 1e+09 B29(15) + 1e+09 B155(2) - I285(20)
   + I293(17) >= -1.999999878e+09
 c231: - 1e+09 B20(16) - 1e+09 B32(14) - 1e+09 B156(2) + I284(18)
   - I296(15) >= -2.999999844e+09
 c232: - 1e+09 B20(16) - 1e+09 B32(14) + 1e+09 B156(2) - I284(18)
   + I296(15) >= -1.999999807e+09
 c233: - 1e+09 B20(16) - 1e+09 B34(15) - 1e+09 B157(4) + I284(18)
   - I298(17) >= -2.999999899e+09
 c234: - 1e+09 B20(16) - 1e+09 B34(15) + 1e+09 B157(4) - I284(18)
   + I298(17) >= -1.999999808e+09
 c235: - 1e+09 B21(18) - 1e+09 B35(16) - 1e+09 B157(4) + I285(20)
   - I299(19) >= -2.999999925e+09
 c236: - 1e+09 B21(18) - 1e+09 B35(16) + 1e+09 B157(4) - I285(20)
   + I299(19) >= -1.999999885e+09
 c237: - 1e+09 B21(18) - 1e+09 B22(18) - 1e+09 B166(2) - I285(20)
   + I286(20) >= -2.99999988e+09
 c238: - 1e+09 B21(18) - 1e+09 B22(18) + 1e+09 B166(2) + I285(20)
   - I286(20) >= -1.999999799e+09
 c239: - 1e+09 B23(13) - 1e+09 B28(13) - 1e+09 B169(2) + I287(16)
   - I292(15) >= -2.999999811e+09
 c240: - 1e+09 B23(13) - 1e+09 B28(13) + 1e+09 B169(2) - I287(16)
   + I292(15) >= -1.999999888e+09
 c241: - 1e+09 B22(18) - 1e+09 B29(15) - 1e+09 B170(4) + I286(20)
   - I293(17) >= -2.999999842e+09
 c242: - 1e+09 B22(18) - 1e+09 B29(15) + 1e+09 B170(4) - I286(20)
   + I293(17) >= -1.999999797e+09
 c243: - 1e+09 B24(9) - 1e+09 B30(9) - 1e+09 B170(4) + I288(12) - I294(11)
   >= -2.999999851e+09
 c244: - 1e+09 B24(9) - 1e+09 B30(9) + 1e+09 B170(4) - I288(12) + I294(11)
   >= -1.999999834e+09
 c245: - 1e+09 B22(18) - 1e+09 B35(16) - 1e+09 B172(4) + I286(20)
   - I299(19) >= -2.999999923e+09
 c246: - 1e+09 B22(18) - 1e+09 B35(16) + 1e+09 B172(4) - I286(20)
   + I299(19) >= -1.999999798e+09
 c247: - 1e+09 B23(13) - 1e+09 B36(12) - 1e+09 B172(4) + I287(16)
   - I300(15) >= -2.999999939e+09
 c248: - 1e+09 B23(13) - 1e+09 B36(12) + 1e+09 B172(4) - I287(16)
   + I300(15) >= -1.999999886e+09
 c249: - 1e+09 B23(13) - 1e+09 B37(12) - 1e+09 B173(4) + I287(16)
   - I301(14) >= -2.99999988e+09
 c250: - 1e+09 B23(13) - 1e+09 B37(12) + 1e+09 B173(4) - I287(16)
   + I301(14) >= -1.999999888e+09
 c251: - 1e+09 B24(9) - 1e+09 B38(9) - 1e+09 B173(4) + I288(12) - I302(12)
   >= -2.999999903e+09
 c252: - 1e+09 B24(9) - 1e+09 B38(9) + 1e+09 B173(4) - I288(12) + I302(12)
   >= -1.999999836e+09
 c253: - 1e+09 B25(13) - 1e+09 B33(14) - 1e+09 B186(4) + I289(14)
   - I297(15) >= -2.999999856e+09
 c254: - 1e+09 B25(13) - 1e+09 B33(14) + 1e+09 B186(4) - I289(14)
   + I297(15) >= -1.999999899e+09
 c255: - 1e+09 B26(13) - 1e+09 B31(14) - 1e+09 B186(4) + I290(14)
   - I295(15) >= -2.999999861e+09
 c256: - 1e+09 B26(13) - 1e+09 B31(14) + 1e+09 B186(4) - I290(14)
   + I295(15) >= -1.999999923e+09
 c257: - 1e+09 B27(15) - 1e+09 B32(14) - 1e+09 B201(2) + I291(17)
   - I296(15) >= -2.999999842e+09
 c258: - 1e+09 B27(15) - 1e+09 B32(14) + 1e+09 B201(2) - I291(17)
   + I296(15) >= -1.99999974e+09
 c259: - 1e+09 B27(15) - 1e+09 B34(15) - 1e+09 B202(4) + I291(17)
   - I298(17) >= -2.999999904e+09
 c260: - 1e+09 B27(15) - 1e+09 B34(15) + 1e+09 B202(4) - I291(17)
   + I298(17) >= -1.999999739e+09
 c261: - 1e+09 B28(13) - 1e+09 B36(12) - 1e+09 B202(4) + I292(15)
   - I300(15) >= -2.999999942e+09
 c262: - 1e+09 B28(13) - 1e+09 B36(12) + 1e+09 B202(4) - I292(15)
   + I300(15) >= -1.999999813e+09
 c263: - 1e+09 B28(13) - 1e+09 B37(12) - 1e+09 B203(2) + I292(15)
   - I301(14) >= -2.99999988e+09
 c264: - 1e+09 B28(13) - 1e+09 B37(12) + 1e+09 B203(2) - I292(15)
   + I301(14) >= -1.999999815e+09
 c265: - 1e+09 B29(15) - 1e+09 B35(16) - 1e+09 B217(2) + I293(17)
   - I299(19) >= -2.999999923e+09
 c266: - 1e+09 B29(15) - 1e+09 B35(16) + 1e+09 B217(2) - I293(17)
   + I299(19) >= -1.99999984e+09
 c267: - 1e+09 B30(9) - 1e+09 B38(9) - 1e+09 B218(2) + I294(11) - I302(12)
   >= -2.999999904e+09
 c268: - 1e+09 B30(9) - 1e+09 B38(9) + 1e+09 B218(2) - I294(11) + I302(12)
   >= -1.999999851e+09
 c269: I264(18) >= 0
 c270: I264(18) >= 0
 c271: I265(18) >= 0
 c272: I265(18) >= 0
 c273: I266(18) >= 0
 c274: I266(18) >= 0
 c275: I267(22) >= 0
 c276: I267(22) >= 0
 c277: I268(20) >= 0
 c278: I268(20) >= 0
 c279: I269(20) >= 0
 c280: I269(20) >= 0
 c281: I270(20) >= 0
 c282: I270(20) >= 0
 c283: I271(16) >= 0
 c284: I271(16) >= 0
 c285: I272(10) >= 0
 c286: I272(10) >= 0
 c287: I273(15) >= 0
 c288: I273(15) >= 0
 c289: I274(19) >= 0
 c290: I274(19) >= 0
 c291: I275(20) >= 0
 c292: I275(20) >= 0
 c293: I276(16) >= 0
 c294: I276(16) >= 0
 c295: I277(18) >= 0
 c296: I277(18) >= 0
 c297: I278(15) >= 0
 c298: I278(15) >= 0
 c299: I279(11) >= 0
 c300: I279(11) >= 0
 c301: I280(9) >= 0
 c302: I280(9) >= 0
 c303: I281(14) >= 0
 c304: I281(14) >= 0
 c305: I282(14) >= 0
 c306: I282(14) >= 0
 c307: I283(10) >= 0
 c308: I283(10) >= 0
 c309: I284(18) >= 0
 c310: I284(18) >= 0
 c311: I285(20) >= 0
 c312: I285(20) >= 0
 c313: I286(20) >= 0
 c314: I286(20) >= 0
 c315: I287(16) >= 0
 c316: I287(16) >= 0
 c317: I288(12) >= 0
 c318: I288(12) >= 0
 c319: I289(14) >= 0
 c320: I289(14) >= 0
 c321: I290(14) >= 0
 c322: I290(14) >= 0
 c323: I291(17) >= 0
 c324: I291(17) >= 0
 c325: I292(15) >= 0
 c326: I292(15) >= 0
 c327: I293(17) >= 0
 c328: I293(17) >= 0
 c329: I294(11) >= 0
 c330: I294(11) >= 0
 c331: I295(15) >= 0
 c332: I295(15) >= 0
 c333: I296(15) >= 0
 c334: I296(15) >= 0
 c335: I297(15) >= 0
 c336: I297(15) >= 0
 c337: I298(17) >= 0
 c338: I298(17) >= 0
 c339: I299(19) >= 0
 c340: I299(19) >= 0
 c341: I300(15) >= 0
 c342: I300(15) >= 0
 c343: I301(14) >= 0
 c344: I301(14) >= 0
 c345: I302(12) >= 0
 c346: I302(12) >= 0
 c347: - 150 B6(18) - 160 B7(13) - 200 B8(7) - 178 B14(13) - 95 B15(9)
   - 150 B16(7) - 190 B22(18) - 100 B23(13) - 153 B24(9) - 145 B29(15)
   - 136 B30(9) - 110 B37(12) - 85 B38(9) - I270(20) - I271(16) - I272(10)
   - I278(15) - I279(11) - I280(9) - I286(20) - I287(16) - I288(12)
   - I293(17) - I294(11) - I301(14) - I302(12) + I303(1) = 0
Bounds
Binaries
 B0(17) B1(17) B2(17) B3(18) B4(17) B5(17) B6(18) B7(13) B8(7) B9(14)
 B10(18) B11(18) B12(13) B13(15) B14(13) B15(9) B16(7) B17(13) B18(13)
 B19(8) B20(16) B21(18) B22(18) B23(13) B24(9) B25(13) B26(13) B27(15)
 B28(13) B29(15) B30(9) B31(14) B32(14) B33(14) B34(15) B35(16) B36(12)
 B37(12) B38(9) B39(0) B40(4) B41(0) B42(4) B43(4) B44(0) B45(4) B46(2)
 B47(0) B48(4) B49(2) B50(0) B51(6) B52(2) B53(0) B54(4) B55(0) B56(2)
 B57(2) B58(4) B59(0) B60(4) B61(2) B62(2) B63(4) B64(0) B65(2) B66(4)
 B67(2) B68(0) B69(0) B70(2) B71(0) B72(0) B73(2) B74(4) B75(0) B76(4)
 B77(4) B78(0) B79(2) B80(2) B81(0) B82(4) B83(2) B84(0) B85(0) B86(0)
 B87(0) B88(2) B89(0) B90(2) B91(2) B92(0) B93(2) B94(2) B95(0) B96(4)
 B97(2) B98(0) B99(0) B100(0) B101(0) B102(2) B103(0) B104(0) B105(2)
 B106(4) B107(2) B108(2) B109(2) B110(2) B111(4) B112(4) B113(0) B114(0)
 B115(0) B116(0) B117(0) B118(0) B119(0) B120(0) B121(2) B122(4) B123(0)
 B124(2) B125(2) B126(0) B127(2) B128(4) B129(0) B130(0) B131(0) B132(0)
 B133(0) B134(0) B135(0) B136(0) B137(0) B138(4) B139(0) B140(0) B141(4)
 B142(0) B143(0) B144(0) B145(0) B146(0) B147(0) B148(0) B149(0) B150(0)
 B151(0) B152(2) B153(0) B154(2) B155(2) B156(2) B157(4) B158(0) B159(0)
 B160(0) B161(0) B162(0) B163(0) B164(0) B165(0) B166(2) B167(0) B168(0)
 B169(2) B170(4) B171(0) B172(4) B173(4) B174(0) B175(0) B176(0) B177(0)
 B178(0) B179(0) B180(0) B181(0) B182(0) B183(0) B184(0) B185(0) B186(4)
 B187(0) B188(0) B189(0) B190(0) B191(0) B192(0) B193(0) B194(0) B195(0)
 B196(0) B197(0) B198(0) B199(0) B200(0) B201(2) B202(4) B203(2) B204(0)
 B205(0) B206(0) B207(0) B208(0) B209(0) B210(0) B211(0) B212(0) B213(0)
 B214(0) B215(0) B216(0) B217(2) B218(2) B219(0) B220(0) B221(0) B222(0)
 B223(0) B224(0) B225(0) B226(0) B227(0) B228(0) B229(0) B230(0) B231(0)
 B232(0) B233(0) B234(0) B235(0) B236(0) B237(0) B238(0) B239(0) B240(0)
 B241(0) B242(0) B243(0) B244(0) B245(0) B246(0) B247(0) B248(0) B249(0)
 B250(0) B251(0) B252(0) B253(0) B254(0) B255(0) B256(0) B257(0) B258(0)
 B259(0) B260(0) B261(0) B262(0) B263(0)
Generals
 I264(18) I265(18) I266(18) I267(22) I268(20) I269(20) I270(20) I271(16)
 I272(10) I273(15) I274(19) I275(20) I276(16) I277(18) I278(15) I279(11)
 I280(9) I281(14) I282(14) I283(10) I284(18) I285(20) I286(20) I287(16)
 I288(12) I289(14) I290(14) I291(17) I292(15) I293(17) I294(11) I295(15)
 I296(15) I297(15) I298(17) I299(19) I300(15) I301(14) I302(12) I303(1)
End
